p tw 284 703
1 2
1 17
1 18
2 17
2 18
3 4
3 15
3 16
4 15
4 16
5 6
5 21
5 22
5 25
5 26
5 29
5 30
6 21
6 22
6 25
6 26
6 29
6 30
7 8
7 19
7 20
7 23
7 24
7 27
7 28
8 19
8 20
8 23
8 24
8 27
8 28
9 10
9 33
9 34
9 37
9 38
10 33
10 34
10 37
10 38
11 12
11 31
11 32
11 35
11 36
11 39
11 40
12 31
12 32
12 35
12 36
12 39
12 40
13 14
13 41
13 42
14 41
14 42
15 16
15 17
15 45
15 46
15 49
15 50
16 69
17 18
17 45
17 46
17 49
17 50
18 70
19 20
19 21
19 43
19 44
19 47
19 48
20 72
21 22
21 43
21 44
21 47
21 48
22 74
23 24
23 25
24 76
25 26
26 78
27 28
27 29
27 51
27 52
27 55
27 56
28 80
29 30
29 51
29 52
29 55
29 56
30 82
31 32
31 33
32 84
33 34
34 86
35 36
35 37
36 88
37 38
38 90
39 40
39 41
39 53
39 54
39 57
39 58
40 92
41 42
41 53
41 54
41 57
41 58
42 94
43 44
43 45
44 96
45 46
46 98
47 48
47 49
48 100
49 50
50 102
51 52
51 53
52 104
53 54
54 106
55 56
55 57
56 108
57 58
58 110
59 60
59 73
59 74
59 77
59 78
59 81
59 82
60 73
60 74
60 77
60 78
60 81
60 82
61 62
61 71
61 72
61 75
61 76
61 79
61 80
62 71
62 72
62 75
62 76
62 79
62 80
63 64
63 85
63 86
63 89
63 90
64 85
64 86
64 89
64 90
65 66
65 83
65 84
65 87
65 88
65 91
65 92
66 83
66 84
66 87
66 88
66 91
66 92
67 68
67 93
67 94
68 93
68 94
69 70
69 97
69 98
69 101
69 102
70 97
70 98
70 101
70 102
71 72
71 73
71 95
71 96
71 99
71 100
72 122
73 74
73 95
73 96
73 99
73 100
74 124
75 76
76 126
77 78
78 128
79 80
79 81
79 103
79 104
79 107
79 108
80 130
81 82
81 103
81 104
81 107
81 108
82 132
83 84
84 134
85 86
86 136
87 88
87 89
88 138
89 90
90 140
91 92
91 93
91 105
91 106
91 109
91 110
92 142
93 94
93 105
93 106
93 109
93 110
94 144
95 96
96 146
97 98
99 100
100 148
101 102
102 147
103 104
103 105
104 150
105 106
106 152
107 108
108 154
109 110
110 156
111 112
111 123
111 124
111 127
111 128
111 131
111 132
112 123
112 124
112 127
112 128
112 131
112 132
113 114
113 121
113 122
113 125
113 126
113 129
113 130
114 121
114 122
114 125
114 126
114 129
114 130
115 116
115 135
115 136
115 139
115 140
116 135
116 136
116 139
116 140
117 118
117 133
117 134
117 137
117 138
117 141
117 142
118 133
118 134
118 137
118 138
118 141
118 142
119 120
119 143
119 144
120 143
120 144
121 122
121 123
121 145
121 146
121 147
121 148
122 168
123 124
123 145
123 146
123 147
123 148
124 170
125 126
126 172
127 128
128 174
129 130
129 131
129 149
129 150
129 153
129 154
130 176
131 132
131 149
131 150
131 153
131 154
132 178
133 134
134 180
135 136
136 182
137 138
137 139
138 184
139 140
140 186
141 142
141 143
141 151
141 152
141 155
141 156
142 188
143 144
143 151
143 152
143 155
143 156
144 190
145 146
146 192
147 148
148 194
149 150
149 151
150 196
151 152
152 198
153 154
154 200
155 156
156 202
157 158
157 169
157 170
157 173
157 174
157 177
157 178
158 169
158 170
158 173
158 174
158 177
158 178
159 160
159 167
159 168
159 171
159 172
159 175
159 176
160 167
160 168
160 171
160 172
160 175
160 176
161 162
161 181
161 182
161 185
161 186
162 181
162 182
162 185
162 186
163 164
163 179
163 180
163 183
163 184
163 187
163 188
164 179
164 180
164 183
164 184
164 187
164 188
165 166
165 189
165 190
166 189
166 190
167 168
167 169
167 191
167 192
167 193
167 194
168 214
169 170
169 191
169 192
169 193
169 194
170 216
171 172
172 218
173 174
174 220
175 176
175 177
175 195
175 196
175 199
175 200
176 222
177 178
177 195
177 196
177 199
177 200
178 224
179 180
180 226
181 182
182 228
183 184
183 185
184 230
185 186
186 232
187 188
187 189
187 197
187 198
187 201
187 202
188 234
189 190
189 197
189 198
189 201
189 202
190 236
191 192
192 237
193 194
194 238
195 196
195 197
196 240
197 198
198 242
199 200
200 244
201 202
202 246
203 204
203 215
203 216
203 219
203 220
203 223
203 224
204 215
204 216
204 219
204 220
204 223
204 224
205 206
205 213
205 214
205 217
205 218
205 221
205 222
206 213
206 214
206 217
206 218
206 221
206 222
207 208
207 227
207 228
207 231
207 232
208 227
208 228
208 231
208 232
209 210
209 225
209 226
209 229
209 230
209 233
209 234
210 225
210 226
210 229
210 230
210 233
210 234
211 212
211 235
211 236
212 235
212 236
213 214
213 215
213 237
213 238
214 257
215 216
215 237
215 238
216 258
217 218
218 259
219 220
220 260
221 222
221 223
221 239
221 240
221 243
221 244
222 262
223 224
223 239
223 240
223 243
223 244
224 264
225 226
226 266
227 228
228 268
229 230
229 231
230 270
231 232
232 272
233 234
233 235
233 241
233 242
233 245
233 246
234 274
235 236
235 241
235 242
235 245
235 246
236 276
239 240
239 241
240 278
241 242
242 280
243 244
244 282
245 246
246 284
247 248
247 258
247 260
247 263
247 264
248 258
248 260
248 263
248 264
249 250
249 257
249 259
249 261
249 262
250 257
250 259
250 261
250 262
251 252
251 267
251 268
251 271
251 272
252 267
252 268
252 271
252 272
253 254
253 265
253 266
253 269
253 270
253 273
253 274
254 265
254 266
254 269
254 270
254 273
254 274
255 256
255 275
255 276
256 275
256 276
261 262
261 263
261 277
261 278
261 281
261 282
263 264
263 277
263 278
263 281
263 282
265 266
267 268
269 270
269 271
271 272
273 274
273 275
273 279
273 280
273 283
273 284
275 276
275 279
275 280
275 283
275 284
277 278
277 279
279 280
281 282
283 284
